tsp_instances/TSP20/instance2.tsp
NODE_COORD_SECTION
0 87 195
1 77 0
2 47 114
3 72 58
4 120 24
5 162 15
6 166 88
7 174 63
8 79 68
9 187 105
10 114 39
11 87 129
12 108 183
13 200 193
14 133 108
15 40 197
16 25 122
17 29 9
18 61 45
19 5 92
