tsp_instances/TSP20/instance2.opt.tour
TOUR_SECTION
1
13
14
10
7
8
6
5
11
2
18
19
4
9
15
12
3
20
17
16
-1